% Logging successfully configured
%%%mzn-stat: initTime=0.071003715
%%%mzn-stat: objective=870
%%%mzn-stat: nodes=39739
%%%mzn-stat: restarts=0
%%%mzn-stat: peakDepth=793
%%%mzn-stat: solveTime=22.663952912
%%%mzn-stat: variables=1344
%%%mzn-stat: propagators=5978
%%%mzn-stat: failures=29310
%%%mzn-stat: propagations=23024492
%%%mzn-stat: nogoods=29310
%%%mzn-stat: numAtomicConstraintsPropagated=0
%%%mzn-stat: circuitNumber4951PropagationsThatFoundConflict=20174
%%%mzn-stat: circuitNumber4951TotalFixedEdgesAtConflict=1946583
%%%mzn-stat: circuitNumber4951NumberOfConflicts=20174
%%%mzn-stat: circuitNumber4951PropagationsThatPruned=20892
%%%mzn-stat: circuitNumber4951PropagationsTotal=73684
%%%mzn-stat: AverageConflictSize=58.508017741385196
%%%mzn-stat: NumUnitNogoodsLearned=0
%%%mzn-stat: AverageLearnedNogoodLength=69.34244285226885
%%%mzn-stat: AverageBacktrackAmount=0
%%%mzn-stat: AverageLbd=43.04810644831116
%%%mzn-stat: 2AutonomousSearchNumBackupCalled=726
%%%mzn-stat: 2AutonomousSearchNumPredicatesRemoved=0
%%%mzn-stat: 2AutonomousSearchNumCalls=727
%%%mzn-stat: 2AutonomousSearchNumPredicatesAdded=4502
%%%mzn-stat: 2AutonomousSearchAverageSizeOfHeap=6.192572214580467
%%%mzn-stat: 2AutonomousSearchNumAssignedPredicatesEncountered=4502
%%%mzn-stat-end
maxleg = 870;
succ = array1d(1..100,[7, 6, 4, 11, 14, 22, 24, 21, 29, 34, 28, 2, 15, 16, 33, 32, 3, 13, 17, 18, 42, 20, 1, 5, 38, 41, 12, 51, 37, 23, 56, 40, 26, 19, 45, 10, 39, 52, 58, 35, 71, 36, 25, 55, 75, 50, 30, 8, 92, 59, 53, 67, 76, 46, 9, 68, 54, 81, 93, 49, 44, 91, 47, 98, 86, 61, 69, 70, 79, 63, 100, 27, 82, 78, 85, 94, 80, 62, 95, 96, 73, 77, 72, 99, 74, 57, 83, 65, 43, 64, 90, 88, 84, 60, 97, 89, 31, 48, 87, 66]);
% time elapsed: 28.41 s
----------
%%%mzn-stat: initTime=0.071003715
%%%mzn-stat: objective=847
%%%mzn-stat: nodes=159568
%%%mzn-stat: restarts=0
%%%mzn-stat: peakDepth=798
%%%mzn-stat: solveTime=73.838550057
%%%mzn-stat: variables=1344
%%%mzn-stat: propagators=5978
%%%mzn-stat: failures=118514
%%%mzn-stat: propagations=98897751
%%%mzn-stat: nogoods=118514
%%%mzn-stat: numAtomicConstraintsPropagated=0
%%%mzn-stat: circuitNumber4951PropagationsThatFoundConflict=22138
%%%mzn-stat: circuitNumber4951TotalFixedEdgesAtConflict=2076797
%%%mzn-stat: circuitNumber4951NumberOfConflicts=22138
%%%mzn-stat: circuitNumber4951PropagationsThatPruned=52557
%%%mzn-stat: circuitNumber4951PropagationsTotal=215608
%%%mzn-stat: AverageConflictSize=30.749050745059655
%%%mzn-stat: NumUnitNogoodsLearned=0
%%%mzn-stat: AverageLearnedNogoodLength=72.13265943264086
%%%mzn-stat: AverageBacktrackAmount=0
%%%mzn-stat: AverageLbd=33.51720471842989
%%%mzn-stat: 2AutonomousSearchNumBackupCalled=1458
%%%mzn-stat: 2AutonomousSearchNumPredicatesRemoved=0
%%%mzn-stat: 2AutonomousSearchNumCalls=1460
%%%mzn-stat: 2AutonomousSearchNumPredicatesAdded=10238
%%%mzn-stat: 2AutonomousSearchAverageSizeOfHeap=7.141780821917808
%%%mzn-stat: 2AutonomousSearchNumAssignedPredicatesEncountered=10427
%%%mzn-stat-end
maxleg = 847;
succ = array1d(1..100,[7, 6, 4, 11, 14, 22, 24, 21, 29, 34, 28, 2, 15, 16, 33, 32, 3, 13, 17, 18, 42, 20, 1, 5, 38, 41, 12, 51, 37, 23, 56, 40, 26, 19, 45, 10, 39, 52, 58, 35, 71, 59, 25, 55, 75, 50, 30, 8, 92, 54, 53, 67, 76, 57, 9, 68, 86, 81, 36, 49, 44, 91, 47, 98, 84, 61, 69, 70, 79, 63, 100, 93, 82, 78, 85, 94, 80, 62, 95, 96, 73, 77, 72, 99, 74, 65, 83, 46, 43, 64, 90, 88, 27, 60, 97, 89, 31, 48, 87, 66]);
% time elapsed: 79.57 s
----------
%%%mzn-stat: initTime=0.071003715
%%%mzn-stat: objective=558
%%%mzn-stat: nodes=160369
%%%mzn-stat: restarts=0
%%%mzn-stat: peakDepth=798
%%%mzn-stat: solveTime=73.846543852
%%%mzn-stat: variables=1344
%%%mzn-stat: propagators=5978
%%%mzn-stat: failures=118518
%%%mzn-stat: propagations=98912376
%%%mzn-stat: nogoods=118518
%%%mzn-stat: numAtomicConstraintsPropagated=0
%%%mzn-stat: circuitNumber4951PropagationsThatFoundConflict=22142
%%%mzn-stat: circuitNumber4951TotalFixedEdgesAtConflict=2077133
%%%mzn-stat: circuitNumber4951NumberOfConflicts=22142
%%%mzn-stat: circuitNumber4951PropagationsThatPruned=52565
%%%mzn-stat: circuitNumber4951PropagationsTotal=215689
%%%mzn-stat: AverageConflictSize=30.749497966553605
%%%mzn-stat: NumUnitNogoodsLearned=0
%%%mzn-stat: AverageLearnedNogoodLength=72.13196307733847
%%%mzn-stat: AverageBacktrackAmount=0
%%%mzn-stat: AverageLbd=33.51722101284193
%%%mzn-stat: 2AutonomousSearchNumBackupCalled=2190
%%%mzn-stat: 2AutonomousSearchNumPredicatesRemoved=0
%%%mzn-stat: 2AutonomousSearchNumCalls=2193
%%%mzn-stat: 2AutonomousSearchNumPredicatesAdded=10759
%%%mzn-stat: 2AutonomousSearchAverageSizeOfHeap=7.457364341085271
%%%mzn-stat: 2AutonomousSearchNumAssignedPredicatesEncountered=16354
%%%mzn-stat-end
maxleg = 558;
succ = array1d(1..100,[7, 6, 4, 11, 14, 22, 24, 21, 29, 34, 28, 2, 15, 16, 33, 32, 3, 13, 17, 18, 42, 20, 1, 5, 38, 41, 12, 51, 37, 23, 56, 40, 26, 19, 45, 10, 39, 52, 58, 35, 71, 59, 25, 55, 75, 50, 30, 8, 92, 54, 53, 67, 76, 57, 61, 68, 86, 81, 93, 94, 66, 84, 47, 48, 88, 100, 69, 70, 79, 63, 82, 36, 98, 78, 85, 91, 80, 62, 95, 96, 73, 77, 72, 99, 74, 65, 83, 44, 43, 60, 90, 46, 27, 49, 97, 89, 31, 64, 87, 9]);
% time elapsed: 79.59 s
----------
%%%mzn-stat: initTime=0.071003715
%%%mzn-stat: objective=532
%%%mzn-stat: nodes=178779
%%%mzn-stat: restarts=0
%%%mzn-stat: peakDepth=798
%%%mzn-stat: solveTime=76.629037905
%%%mzn-stat: variables=1344
%%%mzn-stat: propagators=5978
%%%mzn-stat: failures=124523
%%%mzn-stat: propagations=103958112
%%%mzn-stat: nogoods=124523
%%%mzn-stat: numAtomicConstraintsPropagated=0
%%%mzn-stat: circuitNumber4951PropagationsThatFoundConflict=22398
%%%mzn-stat: circuitNumber4951TotalFixedEdgesAtConflict=2094784
%%%mzn-stat: circuitNumber4951NumberOfConflicts=22398
%%%mzn-stat: circuitNumber4951PropagationsThatPruned=55805
%%%mzn-stat: circuitNumber4951PropagationsTotal=234749
%%%mzn-stat: AverageConflictSize=30.134601639857696
%%%mzn-stat: NumUnitNogoodsLearned=0
%%%mzn-stat: AverageLearnedNogoodLength=70.80630084402078
%%%mzn-stat: AverageBacktrackAmount=0
%%%mzn-stat: AverageLbd=32.78189571404479
%%%mzn-stat: 2AutonomousSearchNumBackupCalled=2923
%%%mzn-stat: 2AutonomousSearchNumPredicatesRemoved=0
%%%mzn-stat: 2AutonomousSearchNumCalls=2927
%%%mzn-stat: 2AutonomousSearchNumPredicatesAdded=16007
%%%mzn-stat: 2AutonomousSearchAverageSizeOfHeap=7.878373761530577
%%%mzn-stat: 2AutonomousSearchNumAssignedPredicatesEncountered=23060
%%%mzn-stat-end
maxleg = 532;
succ = array1d(1..100,[7, 6, 4, 11, 14, 22, 24, 21, 29, 34, 28, 2, 15, 16, 33, 32, 3, 13, 17, 18, 42, 20, 1, 5, 38, 41, 12, 51, 37, 23, 56, 40, 26, 19, 59, 10, 39, 52, 58, 35, 71, 36, 25, 55, 74, 50, 30, 8, 92, 54, 85, 67, 76, 57, 61, 68, 86, 82, 93, 49, 66, 64, 47, 90, 88, 100, 69, 70, 79, 63, 81, 27, 98, 78, 45, 94, 80, 62, 95, 96, 73, 77, 72, 99, 75, 65, 83, 44, 43, 91, 53, 46, 84, 60, 97, 89, 31, 48, 87, 9]);
% time elapsed: 82.37 s
----------
%%%mzn-stat: initTime=0.071003715
%%%mzn-stat: objective=407
%%%mzn-stat: nodes=179873
%%%mzn-stat: restarts=0
%%%mzn-stat: peakDepth=798
%%%mzn-stat: solveTime=76.719461422
%%%mzn-stat: variables=1344
%%%mzn-stat: propagators=5978
%%%mzn-stat: failures=124747
%%%mzn-stat: propagations=104118971
%%%mzn-stat: nogoods=124747
%%%mzn-stat: numAtomicConstraintsPropagated=0
%%%mzn-stat: circuitNumber4951PropagationsThatFoundConflict=22594
%%%mzn-stat: circuitNumber4951TotalFixedEdgesAtConflict=2113567
%%%mzn-stat: circuitNumber4951NumberOfConflicts=22594
%%%mzn-stat: circuitNumber4951PropagationsThatPruned=55886
%%%mzn-stat: circuitNumber4951PropagationsTotal=235361
%%%mzn-stat: AverageConflictSize=30.147835218482207
%%%mzn-stat: NumUnitNogoodsLearned=0
%%%mzn-stat: AverageLearnedNogoodLength=70.74844284832501
%%%mzn-stat: AverageBacktrackAmount=0
%%%mzn-stat: AverageLbd=32.77630724586563
%%%mzn-stat: 2AutonomousSearchNumBackupCalled=3646
%%%mzn-stat: 2AutonomousSearchNumPredicatesRemoved=0
%%%mzn-stat: 2AutonomousSearchNumCalls=3651
%%%mzn-stat: 2AutonomousSearchNumPredicatesAdded=17812
%%%mzn-stat: 2AutonomousSearchAverageSizeOfHeap=8.157491098329224
%%%mzn-stat: 2AutonomousSearchNumAssignedPredicatesEncountered=29783
%%%mzn-stat-end
maxleg = 407;
succ = array1d(1..100,[7, 12, 4, 11, 14, 22, 24, 21, 29, 34, 28, 27, 15, 16, 33, 32, 3, 13, 17, 18, 42, 20, 1, 5, 38, 41, 72, 51, 37, 23, 2, 40, 26, 19, 59, 10, 39, 6, 58, 35, 71, 36, 25, 55, 74, 50, 30, 8, 92, 54, 85, 67, 76, 57, 61, 31, 86, 82, 93, 49, 66, 64, 70, 90, 88, 100, 43, 95, 52, 47, 81, 83, 98, 78, 45, 94, 80, 62, 96, 63, 73, 77, 84, 87, 75, 65, 99, 44, 69, 91, 53, 46, 56, 60, 97, 89, 79, 48, 68, 9]);
% time elapsed: 82.46 s
----------
%%%mzn-stat: initTime=0.071003715
%%%mzn-stat: objective=407
%%%mzn-stat: nodes=2643149
%%%mzn-stat: restarts=0
%%%mzn-stat: peakDepth=798
%%%mzn-stat: solveTime=1794.747865301
%%%mzn-stat: variables=1344
%%%mzn-stat: propagators=5978
%%%mzn-stat: failures=2344964
%%%mzn-stat: propagations=1559796324
%%%mzn-stat: nogoods=2344964
%%%mzn-stat: numAtomicConstraintsPropagated=0
%%%mzn-stat: circuitNumber4951PropagationsThatFoundConflict=2177222
%%%mzn-stat: circuitNumber4951TotalFixedEdgesAtConflict=210458430
%%%mzn-stat: circuitNumber4951NumberOfConflicts=2177222
%%%mzn-stat: circuitNumber4951PropagationsThatPruned=831333
%%%mzn-stat: circuitNumber4951PropagationsTotal=5351934
%%%mzn-stat: AverageConflictSize=65.23413280545032
%%%mzn-stat: NumUnitNogoodsLearned=0
%%%mzn-stat: AverageLearnedNogoodLength=66.78493784979214
%%%mzn-stat: AverageBacktrackAmount=0
%%%mzn-stat: AverageLbd=45.30980305028137
%%%mzn-stat: 2AutonomousSearchNumBackupCalled=3646
%%%mzn-stat: 2AutonomousSearchNumPredicatesRemoved=0
%%%mzn-stat: 2AutonomousSearchNumCalls=3651
%%%mzn-stat: 2AutonomousSearchNumPredicatesAdded=24953
%%%mzn-stat: 2AutonomousSearchAverageSizeOfHeap=8.157491098329224
%%%mzn-stat: 2AutonomousSearchNumAssignedPredicatesEncountered=29783
%%%mzn-stat-end
